WARNING: for repeatability, setting FPU to use double precision
============================[ Problem Statistics ]=============================
|                                                                             |
|  Number of variables:           600                                         |
|  Number of clauses:            2800                                         |
|  Parse time:                   0.00 s                                       |
|                                                                             |
============================[ Search Statistics ]==============================
| Conflicts |          ORIGINAL         |          LEARNT          | Progress |
|           |    Vars  Clauses Literals |    Limit  Clauses Lit/Cl |          |
===============================================================================
|       100 |     600     2800     9380 |     1026      100      4 |  0.000 % |
|       250 |     600     2800     9380 |     1129      250      8 |  0.000 % |
|       475 |     600     2800     9380 |     1242      475     12 |  0.000 % |
|       812 |     600     2800     9380 |     1366      812     14 |  0.000 % |
|      1318 |     600     2800     9380 |     1503     1318     15 |  0.000 % |
|      2077 |     600     2800     9380 |     1653     1273     16 |  0.000 % |
|      3216 |     600     2800     9380 |     1818     1558     16 |  0.000 % |
|      4924 |     600     2800     9380 |     2000     1356     15 |  0.000 % |
|      7486 |     600     2800     9380 |     2200     1852     15 |  0.000 % |
|     11330 |     600     2800     9380 |     2420     2237     16 |  0.000 % |
|     17096 |     600     2800     9380 |     2662     1760     15 |  0.000 % |
|     25745 |     600     2800     9380 |     2929     2164     14 |  0.000 % |
|     38719 |     600     2800     9380 |     3222     1603     13 |  0.000 % |
|     58180 |     600     2800     9380 |     3544     2945     15 |  0.000 % |
|     87372 |     600     2800     9380 |     3898     3194     16 |  0.000 % |
|    131161 |     600     2800     9380 |     4288     3305     15 |  0.000 % |
|    196845 |     600     2800     9380 |     4717     3471     16 |  0.000 % |
|    295371 |     600     2800     9380 |     5189     3692     16 |  0.000 % |
|    443160 |     600     2800     9380 |     5708     4220     15 |  0.000 % |
|    664843 |     600     2800     9380 |     6278     3362     16 |  0.000 % |
|    997368 |     600     2800     9380 |     6906     5336     16 |  0.000 % |
|   1496156 |     600     2800     9380 |     7597     5203     15 |  0.000 % |
|   2244338 |     600     2800     9380 |     8357     5747     15 |  0.000 % |
|   3366612 |     600     2800     9380 |     9193     7497     16 |  0.000 % |
|   5050023 |     600     2800     9380 |    10112     4959     14 |  0.000 % |
|   7575139 |     600     2800     9380 |    11123     9862     15 |  0.000 % |
|  11362814 |     600     2800     9380 |    12235     8696     15 |  0.000 % |
|  17044326 |     600     2800     9380 |    13459    11729     16 |  0.000 % |
|  25566595 |     600     2800     9380 |    14805    11815     14 |  0.000 % |
|  38349998 |     600     2800     9380 |    16286    12781     16 |  0.000 % |
===============================================================================
restarts              : 65531
conflicts             : 46317585       (47412 /sec)
decisions             : 64358017       (0.00 % random) (65879 /sec)
propagations          : 3094726366     (3167874 /sec)
conflict literals     : 748318021      (24.07 % deleted)
Memory used           : 13.00 MB
CPU time              : 976.909 s

UNSATISFIABLE
